COLUMNS

passenger_count
pickup_ID
dropoff_ID
request_time_sec
pickup_district
dropoff_district
LDuals
IDuals
vehicle_ID
pick_position
drop_position

REQUESTS_INFO
1      313       608       31406     87        189       132       132       4         1         3         
2      325       250       31386     299       127       161       161       81        1         2         
1      551       532       31386     189       199       156       156       101       1         3         
1      836       749       31406     290       290       124       124       120       1         2         
1      236       923       31362     87        290       166       166       159       1         2         
1      928       923       31402     290       290       189       189       207       1         2         
1      345       459       31409     299       189       174       174       208       1         3         
2      510       648       31377     199       189       156       156       259       1         2         
1      963       1026      31393     50        291       152       152       265       1         2         
1      336       116       31388     277       9         174       174       355       1         4         
1      570       981       31391     52        291       114       114       379       1         2         
3      969       721       31336     290       290       204       204       381       1         2         
1      904       747       31409     290       290       133       133       462       1         3         
1      909       969       31361     290       290       212       212       474       1         2         
3      618       693       31374     131       280       143       143       527       1         3         
1      465       650       31383     199       189       134       134       542       1         2         
1      859       650       31402     290       189       140       140       567       1         3         
1      850       695       31383     291       189       140       140       594       1         3         
1      1208      1032      31402     192       84        122       122       626       1         3         
1      861       929       31387     290       290       160       160       641       1         2         
1      267       266       31353     266       266       191       191       655       1         2         
1      871       502       31388     291       52        170       170       732       1         3         
1      875       189       31364     291       286       171       171       804       1         4         
3      500       285       31400     52        299       142       142       827       1         2         
3      770       486       31349     290       199       206       206       844       1         2         
3      644       644       31352     131       131       157       157       850       1         2         
3      838       632       31390     290       189       180       180       893       1         2         
1      923       139       31393     290       57        130       130       965       1         4         
1      906       488       31353     290       199       122       122       966       1         4         
1      800       629       31363     131       189       183       183       972       1         3         
3      386       549       31382     299       52        202       202       973       1         2         
2      498       21        31385     52        98        187       187       990       1         4         
1      1027      720       31407     50        290       154       154       1011      1         3         
1      924       579       31370     290       189       196       196       1014      1         2         
2      950       852       31338     290       291       225       225       1023      1         2         
1      354       484       31381     119       189       145       145       1036      1         2         
3      460       253       31382     189       206       168       168       1088      1         2         
1      948       535       31403     290       189       166       166       1091      1         3         
2      1091      860       31374     291       290       169       169       1104      1         2         
1      1128      859       31359     291       290       143       143       1108      1         3         
1      1091      1010      31406     291       290       137       137       1112      1         2         
1      881       741       31402     290       50        166       166       1127      1         2         
3      330       464       31393     127       168       172       172       1873      1         3         
1      906       1024      31295     290       291       290       290       1899      1         2         
1      914       628       31354     291       189       198       198       1906      1         2         
1      276       327       31381     87        299       138       138       1917      1         2         
1      884       558       31410     290       189       0         0         0         0         0         
1      433       174       31410     52        266       0         0         0         0         0         
1      579       697       31410     189       189       0         0         0         0         0         
1      1151      654       31410     291       189       0         0         0         0         0         
1      1168      1300      31410     291       192       0         0         0         0         0         
2      532       506       31410     199       189       0         0         0         0         0         
2      387       650       31410     299       189       0         0         0         0         0         
3      530       680       31411     189       290       0         0         0         0         0         
1      1068      1025      31411     291       291       0         0         0         0         0         
1      909       233       31411     290       206       0         0         0         0         0         
2      531       386       31411     189       299       0         0         0         0         0         
2      530       680       31411     189       290       0         0         0         0         0         
1      1047      595       31412     291       131       0         0         0         0         0         
1      549       727       31412     52        290       0         0         0         0         0         
2      743       991       31412     290       290       0         0         0         0         0         
1      580       676       31412     189       189       0         0         0         0         0         
1      139       134       31413     57        9         0         0         0         0         0         
1      972       581       31413     290       189       0         0         0         0         0         
1      500       116       31413     52        9         0         0         0         0         0         
2      940       627       31413     291       189       0         0         0         0         0         
1      1128      544       31413     291       52        0         0         0         0         0         
2      536       668       31413     189       280       0         0         0         0         0         
3      536       668       31413     189       280       0         0         0         0         0         
1      461       604       31414     189       189       0         0         0         0         0         
1      715       697       31414     131       189       0         0         0         0         0         
1      903       1234      31414     290       129       0         0         0         0         0         
1      963       1048      31414     50        291       0         0         0         0         0         
1      391       333       31414     52        119       0         0         0         0         0         
2      434       116       31415     52        9         0         0         0         0         0         
2      713       577       31415     131       189       0         0         0         0         0         
1      441       626       31415     168       189       0         0         0         0         0         
1      852       924       31415     291       290       0         0         0         0         0         
3      313       1169      31415     87        291       0         0         0         0         0         
3      313       1169      31415     87        291       0         0         0         0         0         
1      628       35        31415     189       98        0         0         0         0         0         
1      522       509       31416     52        199       0         0         0         0         0         
2      507       194       31416     189       207       0         0         0         0         0         
1      355       722       31416     119       290       0         0         0         0         0         
1      372       760       31416     119       291       0         0         0         0         0         
3      507       194       31416     189       207       0         0         0         0         0         
1      948       835       31417     290       290       0         0         0         0         0         
1      395       432       31418     100       52        0         0         0         0         0         
1      375       175       31418     119       266       0         0         0         0         0         
3      551       577       31418     189       189       0         0         0         0         0         
1      78        778       31418     9         131       0         0         0         0         0         
1      484       695       31418     189       189       0         0         0         0         0         
2      1055      1033      31418     84        84        0         0         0         0         0         
1      486       486       31418     199       199       0         0         0         0         0         
1      742       903       31419     290       290       0         0         0         0         0         
1      860       722       31419     290       290       0         0         0         0         0         
1      577       415       31419     189       100       0         0         0         0         0         
3      310       173       31419     127       286       0         0         0         0         0         
1      646       1336      31419     280       129       0         0         0         0         0         
1      526       545       31419     52        52        0         0         0         0         0         
2      307       175       31419     127       266       0         0         0         0         0         
3      582       464       31420     189       168       0         0         0         0         0         
3      582       464       31420     189       168       0         0         0         0         0         
1      628       696       31420     189       189       0         0         0         0         0         
1      1087      839       31420     291       290       0         0         0         0         0         
1      662       531       31421     131       189       0         0         0         0         0         
1      629       771       31421     189       290       0         0         0         0         0         
1      374       140       31421     119       54        0         0         0         0         0         
1      817       699       31421     290       290       0         0         0         0         0         
1      938       817       31421     291       290       0         0         0         0         0         
1      642       350       31422     131       127       0         0         0         0         0         
1      760       247       31422     291       266       0         0         0         0         0         
1      791       506       31422     290       189       0         0         0         0         0         
1      859       804       31422     290       291       0         0         0         0         0         
2      887       991       31422     290       290       0         0         0         0         0         
1      582       209       31423     189       266       0         0         0         0         0         
1      690       559       31423     131       189       0         0         0         0         0         
1      907       11        31423     290       999       0         0         0         0         0         
1      782       1026      31423     291       291       0         0         0         0         0         
3      557       605       31424     189       189       0         0         0         0         0         
1      456       455       31424     52        52        0         0         0         0         0         
1      535       673       31424     189       189       0         0         0         0         0         
1      811       990       31424     290       290       0         0         0         0         0         
1      549       779       31424     52        131       0         0         0         0         0         
1      485       331       31424     189       127       0         0         0         0         0         
1      848       847       31425     291       291       0         0         0         0         0         
1      443       488       31426     168       199       0         0         0         0         0         
1      1022      1227      31426     291       192       0         0         0         0         0         
1      122       544       31426     54        52        0         0         0         0         0         
1      479       606       31427     52        189       0         0         0         0         0         
1      439       721       31427     189       290       0         0         0         0         0         
1      698       602       31427     189       189       0         0         0         0         0         
1      621       417       31427     280       100       0         0         0         0         0         
2      673       802       31428     189       291       0         0         0         0         0         
1      743       858       31428     290       290       0         0         0         0         0         
3      673       802       31428     189       291       0         0         0         0         0         
1      509       117       31428     199       286       0         0         0         0         0         
1      152       136       31429     9         286       0         0         0         0         0         
1      571       642       31429     52        131       0         0         0         0         0         
1      116       697       31429     9         189       0         0         0         0         0         
1      584       769       31429     189       290       0         0         0         0         0         
1      792       602       31429     290       189       0         0         0         0         0         
3      791       605       31429     290       189       0         0         0         0         0         
2      884       772       31429     290       290       0         0         0         0         0         
1      663       116       31429     131       9         0         0         0         0         0         
1      43        78        31429     9         9         0         0         0         0         0         
2      578       476       31430     189       52        0         0         0         0         0         
1      603       649       31430     189       189       0         0         0         0         0         
1      251       139       31430     127       57        0         0         0         0         0         
2      461       504       31430     189       52        0         0         0         0         0         
2      215       983       31430     178       291       0         0         0         0         0         
1      81        253       31431     98        206       0         0         0         0         0         
1      912       916       31431     291       291       0         0         0         0         0         
1      311       458       31431     87        52        0         0         0         0         0         
1      882       651       31431     290       189       0         0         0         0         0         
1      621       505       31431     280       52        0         0         0         0         0         
1      598       545       31432     189       52        0         0         0         0         0         
1      673       575       31432     189       189       0         0         0         0         0         
1      903       604       31432     290       189       0         0         0         0         0         
1      894       1147      31432     291       291       0         0         0         0         0         
1      458       695       31432     52        189       0         0         0         0         0         
3      834       698       31432     290       189       0         0         0         0         0         
1      782       938       31432     291       291       0         0         0         0         0         
1      512       504       31432     199       52        0         0         0         0         0         
3      269       748       31433     127       290       0         0         0         0         0         
3      269       748       31433     127       290       0         0         0         0         0         
1      842       534       31433     290       199       0         0         0         0         0         
1      703       1321      31433     290       129       0         0         0         0         0         
1      248       371       31433     266       52        0         0         0         0         0         
1      664       1010      31433     131       290       0         0         0         0         0         
1      627       558       31433     189       189       0         0         0         0         0         
1      506       399       31434     189       168       0         0         0         0         0         
1      991       757       31434     290       131       0         0         0         0         0         
1      699       649       31434     290       189       0         0         0         0         0         
1      136       21        31434     286       98        0         0         0         0         0         
1      766       656       31434     290       290       0         0         0         0         0         
1      389       232       31434     299       266       0         0         0         0         0         
1      487       364       31434     199       299       0         0         0         0         0         
1      367       533       31434     299       199       0         0         0         0         0         
1      743       903       31435     290       290       0         0         0         0         0         
1      555       676       31435     199       189       0         0         0         0         0         
1      439       79        31435     189       98        0         0         0         0         0         
1      904       1048      31435     290       291       0         0         0         0         0         
1      654       20        31435     189       98        0         0         0         0         0         
2      401       536       31436     999       189       0         0         0         0         0         
1      64        81        31436     98        98        0         0         0         0         0         
1      621       213       31436     280       266       0         0         0         0         0         
1      891       722       31436     291       290       0         0         0         0         0         
2      509       460       31437     199       189       0         0         0         0         0         
1      556       673       31437     199       189       0         0         0         0         0         
1      861       772       31438     290       290       0         0         0         0         0         
1      22        630       31438     98        189       0         0         0         0         0         
1      557       48        31438     189       98        0         0         0         0         0         
2      676       970       31438     189       290       0         0         0         0         0         
1      1131      1088      31438     291       291       0         0         0         0         0         
3      969       859       31438     290       290       0         0         0         0         0         
1      603       648       31438     189       189       0         0         0         0         0         
1      236       483       31439     87        189       0         0         0         0         0         
1      894       530       31439     291       189       0         0         0         0         0         
3      549       695       31439     52        189       0         0         0         0         0         
2      533       189       31439     199       286       0         0         0         0         0         
1      1207      781       31439     192       291       0         0         0         0         0         
